(set-option :print-success false)
(set-logic QF_UF)
(declare-sort x36 0)
(declare-sort x27 0)
(declare-fun x47 () Bool)
(declare-fun x31 () Bool)
(declare-fun x21 () x36)
(declare-fun x50 () Bool)
(declare-fun x26 () x27)
(declare-fun x43 () Bool)
(declare-fun x65 () Bool)
(declare-fun x51 () Bool)
(declare-fun x5 () x36)
(declare-fun x42 () x27)
(declare-fun x41 () Bool)
(declare-fun x55 () Bool)
(declare-fun x30 () Bool)
(declare-fun x25 () Bool)
(declare-fun x15 () Bool)
(declare-fun x4 () x27)
(declare-fun x24 () Bool)
(declare-fun x16 (x27 x27) Bool)
(declare-fun x23 () x36)
(declare-fun x52 () x36)
(declare-fun x59 () Bool)
(declare-fun x33 () x36)
(declare-fun x58 () Bool)
(declare-fun x49 () Bool)
(declare-fun x39 () Bool)
(declare-fun x56 () Bool)
(declare-fun x22 () Bool)
(declare-fun x64 () Bool)
(declare-fun x46 () Bool)
(declare-fun x60 () Bool)
(declare-fun x19 () Bool)
(declare-fun x61 () Bool)
(declare-fun x54 () x36)
(declare-fun x8 () x27)
(declare-fun x35 () Bool)
(declare-fun x62 () Bool)
(declare-fun x29 (x27 x27) x27)
(declare-fun x34 () x36)
(declare-fun x11 () Bool)
(declare-fun x9 () Bool)
(declare-fun x13 () Bool)
(declare-fun x44 () Bool)
(declare-fun x57 () Bool)
(declare-fun x10 () x27)
(declare-fun x1 () x27)
(declare-fun x28 () x36)
(declare-fun x18 () x27)
(declare-fun x17 () Bool)
(declare-fun x7 () Bool)
(declare-fun x3 () Bool)
(declare-fun x48 () Bool)
(declare-fun x14 () x27)
(declare-fun x6 () x36)
(declare-fun x37 () x36)
(declare-fun x45 () x27)
(declare-fun x32 () x27)
(declare-fun x20 () Bool)
(declare-fun x53 () x36)
(declare-fun x38 () Bool)
(declare-fun x63 () Bool)
(declare-fun x40 () Bool)
(declare-fun x12 () Bool)
(declare-fun x2 () Bool)
(assert (= (ite x17 x42 x18) x10))
(assert (= x50 (= x5 x21)))
(assert (distinct x18 x1 x42 x4))
(assert (= x17 (not x47)))
(assert (= (= x23 x21) x60))
(assert (= x46 (not x62)))
(assert (= (= x21 x53) x55))
(assert (= (= x21 x54) x15))
(assert (= x19 (= x21 x33)))
(assert (= (ite x41 x42 x18) x14))
(assert (= x25 (and x58 x62)))
(assert (= (not x11) x40))
(assert (= (not x43) x25))
(assert (= x57 (= x24 x43)))
(assert (= x48 (= x21 x37)))
(assert (= x32 (x29 x10 x14)))
(assert (= x46 (x16 x42 x32)))
(assert (= x38 (not x31)))
(assert (= (not x12) x61))
(assert (= (not x56) x41))
(assert (= (not x13) x2))
(assert (= x20 (not x3)))
(assert (= x39 (not x22)))
(assert (distinct x28 x21 x34))
(assert x51)
(assert (= x44 (= x52 x21)))
(assert (= x51 (and x48 x22 x44 x3 x12 x19 x55 x11 x63 x47 x15 x56 x57 x65 x58 x31 x13 x60 x35 x50 x59)))
(assert (= x9 (not x58)))
(assert (= x30 (not x35)))
(assert (= (not x59) x24))
(assert (= (not x63) x64))
(assert (= (= x6 x21) x65))
(check-sat)
(exit)
